NAME : eil41-3
COMMENT : 41-city problem (Christofides/Eilon)
TYPE : CTSP
DIMENSION : 41
SALESMEN : 3
EDGE_WEIGHT_TYPE : EUC_2D
NODE_COORD_SECTION
1 42 41
2 5 25
3 32 22
4 20 26
5 17 33
6 27 23
7 7 38
8 62 42
9 58 27
10 58 48
11 56 37
12 61 33
13 52 41
14 17 63
15 52 64
16 37 69
17 5 64
18 27 68
19 43 67
20 8 52
21 62 63
22 49 49
23 31 62
24 32 39
25 25 55
26 52 33
27 21 47
28 48 28
29 42 57
30 51 31
31 30 48
32 30 40
33 12 42
34 37 52
35 16 57
36 31 32
37 57 58
38 38 46
39 40 30
40 25 32
41 45 35
CTSP_SET_SECTION
1 2 3 4 5 6 7 -1
2 8 9 10 11 12 13 -1
3 14 15 16 17 18 19 -1
DEPOT_SECTION
1
-1
EOF
